Running for instance ./models/c201.txt
Generating routes...
Execution time:  0.370318716667  minutes
Academic license - for non-commercial use only
Warning: constraint name "Cliente esta na rota" has a space
Optimize a model with 26 rows, 5000 columns and 32877 nonzeros
Variable types: 0 continuous, 5000 integer (0 binary)
Coefficient statistics:
  Matrix range     [1e+00, 1e+00]
  Objective range  [3e+01, 2e+02]
  Bounds range     [1e+00, 1e+00]
  RHS range        [1e+00, 2e+01]
Found heuristic solution: objective 813.4748036
Presolve removed 0 rows and 130 columns
Presolve time: 0.03s
Presolved: 26 rows, 4870 columns, 32079 nonzeros
Variable types: 0 continuous, 4870 integer (4870 binary)

Root relaxation: objective 2.891386e+02, 101 iterations, 0.01 seconds

    Nodes    |    Current Node    |     Objective Bounds      |     Work
 Expl Unexpl |  Obj  Depth IntInf | Incumbent    BestBd   Gap | It/Node Time

     0     0  289.13857    0   20  813.47480  289.13857  64.5%     -    0s
H    0     0                     460.2661303  289.13857  37.2%     -    0s
H    0     0                     310.5914728  289.13857  6.91%     -    0s
     0     0  294.90133    0   23  310.59147  294.90133  5.05%     -    0s
     0     0  294.90133    0    6  310.59147  294.90133  5.05%     -    0s
     0     0  299.28150    0   21  310.59147  299.28150  3.64%     -    0s
     0     0  299.78860    0   22  310.59147  299.78860  3.48%     -    0s
     0     0  302.45704    0   25  310.59147  302.45704  2.62%     -    0s
     0     0     cutoff    0       310.59147  310.59147  0.00%     -    0s

Explored 1 nodes (267 simplex iterations) in 0.12 seconds
Thread count was 8 (of 8 available processors)

Solution count 3: 310.591 460.266 813.475 

Optimal solution found (tolerance 1.00e-04)
Best objective 3.105914728266e+02, best bound 3.105914728266e+02, gap 0.0000%
22 24 23 19 16 14 12 13
5 2 1 7 3 4 11
20 24 6 23 18 19 15 17 9 8
Distance: 310.591472827
Execution time:  0.378017783333  minutes
